Cd Te                                   
   1.00000000000000     
    25.9985741146061038    0.0000000000000000    0.0000000000000000
     0.0000000000000000   25.9985741146061038    0.0000000000000000
     0.0000000000000000    0.0000000000000000   25.9985741146061038
   Cd   Te
   256   255
Direct
  0.1257185189325440  0.1253031728786667  0.0001354761362364
  0.3747017504874819  0.1253500329198047  0.0001323078311160
  0.6231884469037681  0.1268116145193829  0.0000031474641062
  0.8745309850163849  0.1282464510387840  0.9995310646066002
  0.1252345864987916  0.3751190871846859  0.0000815230674576
  0.3748604995177374  0.3751394866243984  0.0001147057131092
  0.6246499574850759  0.3752982312033524  0.0001321839546833
  0.8750688712610568  0.3752953073882850  0.0000689568866363
  0.1256482555950313  0.6243517460336676  0.0003223974518249
  0.3748808779309627  0.6247653737524601  0.0000812589926866
  0.6246967336811196  0.6242813234098747  0.0001349638734425
  0.8758556134045890  0.6235629208409321  0.0008556486813660
  0.1264370796610450  0.8741444063344233  0.0008555876412188
  0.3747046558552753  0.8749311306044163  0.0000688172560643
  0.6217536993440618  0.8754690289142957  0.9995309754985655
  0.8913750130238540  0.8586269088573104  0.0163752401541117
  0.1252042066495207  0.1251639019670492  0.2502043446762272
  0.3749728530563843  0.1251468897681676  0.2501177154841585
  0.6247665116546415  0.1252335093124017  0.2501918459190193
  0.8751352491548943  0.1253031337998465  0.2507185792780362
  0.1251221663194215  0.3750665994887257  0.2501222594788146
  0.3749684205479866  0.3750316001581240  0.2500801485978172
  0.6248531331114293  0.3750271326298034  0.2501176105819241
  0.8750813727584656  0.3751190544803364  0.2502346404583093
  0.1251303285892433  0.6248697001702155  0.2501303441685678
  0.3749334042462280  0.6248778392542036  0.2501221038482910
  0.6248360774613602  0.6247957422604244  0.2502041227324838
  0.8753223561948857  0.6243518253890414  0.2506481422912046
  0.1256481084319461  0.8746777519135804  0.2506481556108184
  0.3748808717959591  0.8749186412592351  0.2502345416191645
  0.6246967725211476  0.8748648652157982  0.2507184957995747
  0.8758556090780516  0.8741444697081420  0.2514369705638657
  0.1251176253715300  0.1251468734621426  0.4999729192121052
  0.3749445479235192  0.1251207686612759  0.4999445475343904
  0.6248152297096254  0.1251847975443070  0.4997758562636818
  0.8751322453470607  0.1253499827352940  0.4997019239531184
  0.1250801151921408  0.3750315821446506  0.4999684299058202
  0.3749638221838723  0.3750361765087291  0.4999638064620058
  0.6248792456250882  0.3750554311215737  0.4999445150522632
  0.8751146757837489  0.3751394392538359  0.4998605668321261
  0.1251221589522657  0.6248778549031400  0.4999333866545257
  0.3749684029897722  0.6249198719040550  0.4999683431503001
  0.6248531033716347  0.6248823502999485  0.4999727220066674
  0.8750813527372685  0.6247654315688038  0.4998808067022082
  0.1252345594887458  0.8749186868964856  0.4998809158699373
  0.3748605067681439  0.8748853297323507  0.4998604290559854
  0.6246499941097596  0.8748677787387678  0.4997016185900520
  0.8750688975521541  0.8749311984085253  0.4997046676924768
  0.1251918453981773  0.1252335632111823  0.7497666350297081
  0.3747758260825336  0.1251848209088351  0.7498151850464367
  0.6246372294988376  0.1253627798336225  0.7496372567612966
  0.8750031475066962  0.1268115355896668  0.7481887720845464
  0.1251176336356110  0.3750271026897565  0.7498531832451363
  0.3749445165550895  0.3750554286333028  0.7498792086077160
  0.6248151829212460  0.3752241314854317  0.7498151402695186
  0.8751322440389941  0.3752982195509773  0.7496500624958315
  0.1252042539278193  0.6247957176380012  0.7498360669143551
  0.3749728277059390  0.6248823303824338  0.7498530149617935
  0.6247664660246528  0.6248081237367629  0.7497662836875563
  0.8751351409470161  0.6242813411118107  0.7496966830001597
  0.1257186643318491  0.8748649034921243  0.7496968121879846
  0.3747017760770106  0.8748677896264496  0.7496498712288258
  0.6231885406172921  0.8749969192888329  0.7481883810352912
  0.8745310354294915  0.8754689810029248  0.7467538245480796
  0.0032464460384247  0.9995309790807809  0.9995310602917513
  0.2502953050975805  0.0000688690359070  0.0000689562742338
  0.4985629185226514  0.0008556127550818  0.0008556504205401
  0.7336269019514603  0.0163749193284985  0.0163753532924673
  0.0003031763344907  0.2507185209022964  0.0001354754300493
  0.2501190858184543  0.2502345858043640  0.0000815227210182
  0.4993517389306632  0.2506482607501255  0.0003224037711433
  0.7491444085834189  0.2514370820378957  0.0008555896777054
  0.0003500344852299  0.4997017538550281  0.0001323074788075
  0.2501394852509975  0.4998605019131972  0.0001147046818204
  0.4997653704380127  0.4998808800269074  0.0000812590725801
  0.7499311302934188  0.4997046583063707  0.0000688186361515
  0.0018116060201976  0.7481884579928604  0.0000031360491803
  0.2502982271163319  0.7496499612311354  0.0001321811139334
  0.4992813278357531  0.7496967372599812  0.0001349676970008
  0.7504690387182009  0.7467537037760508  0.9995309835792128
  0.0003031334398642  0.0001352491018594  0.2507185800684439
  0.2501190543065022  0.0000813717461412  0.2502346383875391
  0.4993518285956284  0.0003223509044545  0.2506481387530570
  0.7491444709003829  0.0008556083091520  0.2514369708914899
  0.0001639027656850  0.2502042065157184  0.2502043459235495
  0.2500665963589626  0.2501221657263457  0.2501222604695315
  0.4998696956135902  0.2501303281463834  0.2501303449914687
  0.7496777526665213  0.2506481087052990  0.2506481565792527
  0.0001468893859382  0.4999728552019391  0.2501177165776980
  0.2500316000459009  0.4999684224156340  0.2500801480632120
  0.4998778379779765  0.4999334024392112  0.2501221038046850
  0.7499186415449373  0.4998808721283012  0.2502345428755035
  0.0002335102277726  0.7497665135072253  0.2501918450361842
  0.2500271331201844  0.7498531329133939  0.2501176101856046
  0.4997957409822718  0.7498360789122529  0.2502041213058845
  0.7498648621574020  0.7496967743518397  0.2507184923900496
  0.0003499850525515  0.0001322437444102  0.4997019256733140
  0.2501394366374114  0.0001146711346749  0.4998605682368691
  0.4997654287548059  0.0000813491966269  0.4998808048943602
  0.7499311994910514  0.0000688953535430  0.4997046661984257
  0.0001468743903104  0.2501176258143971  0.4999729194684690
  0.2500315822268604  0.2500801194454851  0.4999684297962830
  0.4998778524759331  0.2501221580676685  0.4999333847253382
  0.7499186893374201  0.2502345610451684  0.4998809129856099
  0.0001207696921028  0.4999445513915788  0.4999445480028584
  0.2500361724747009  0.4999638214980067  0.4999638069238870
  0.4999198773940279  0.4999684045817006  0.4999683426953965
  0.7498853322255670  0.4998605086050389  0.4998604291444693
  0.0001847985639785  0.7498152300255896  0.4997758587724377
  0.2500554314490842  0.7498792443028179  0.4999445145444597
  0.4998823492961790  0.7498531014922278  0.4999727200610309
  0.7498677810564445  0.7496499951238746  0.4997016196206019
  0.0018115222078450  0.0000031205116073  0.7481887931442088
  0.2502982141854559  0.0001322394988748  0.7496500639479464
  0.4992813322198160  0.0001351324745968  0.7496966782907108
  0.7504689975109002  0.9995310437538407  0.7467538346754168
  0.0002335666141136  0.2501918450725995  0.7497666334764190
  0.2500271007394019  0.2501176326412633  0.7498531840211271
  0.4997957122501759  0.2502042553929797  0.7498360663477541
  0.7498649126468564  0.2507186752049506  0.7496968024649178
  0.0001848227750969  0.4997758307863691  0.7498151839787965
  0.2500554293656236  0.4999445185849183  0.7498792083031560
  0.4998823286858141  0.4999728297528989  0.7498530153076999
  0.7498677919054373  0.4997017797183005  0.7496498710909236
  0.0003627779873483  0.7496372336863644  0.7496372601617338
  0.2502241270101280  0.7498151844069270  0.7498151424809620
  0.4998081208157572  0.7497664654770801  0.7497662820124802
  0.7499969239416231  0.7481885432922581  0.7481883865649692
  0.1257184772592694  0.0001352346693650  0.1253032484361469
  0.3747017477801364  0.0001322344625621  0.1253500562468375
  0.6231885935140227  0.0000030711219097  0.1268113591447673
  0.8745309906366074  0.9995309890309372  0.1282463221981445
  0.1252042236693711  0.2502042224277048  0.1251640930606115
  0.3749728418428120  0.2501176625308688  0.1251469620142487
  0.6247664914613082  0.2501918535398318  0.1252335214966394
  0.8751352341062457  0.2507184781430425  0.1253032521583890
  0.1251176625504016  0.4999728444058817  0.1251469606981033
  0.3749445535293603  0.4999445556944693  0.1251207543823085
  0.6248151773372328  0.4997758668358969  0.1251847175682386
  0.8751322358007911  0.4997017483510362  0.1253500563794603
  0.1251918539996311  0.7497664941015287  0.1252335197845795
  0.3747758654202684  0.7498151792138472  0.1251847160858119
  0.6246372209462336  0.7496372218972667  0.1253625732382915
  0.8750030850443196  0.7481885857086823  0.1268113656684591
  0.1252345206399497  0.0000813652421670  0.3751191693850018
  0.3748605203081254  0.0001146637749585  0.3751394564817119
  0.6246500452440955  0.0001322156102503  0.3752981162921145
  0.8750688759373304  0.0000688756125626  0.3752953282953371
  0.1251221450186364  0.2501221428333977  0.3750666709564854
  0.3749684185819433  0.2500801305376399  0.3750316180649733
  0.6248531458783901  0.2501176310156694  0.3750271326980226
  0.8750813663684980  0.2502345208934429  0.3751191698471459
  0.1250801259277381  0.4999684192081446  0.3750316180959601
  0.3749638308240790  0.4999638301786717  0.3750361510019573
  0.6248792344511429  0.4999445502174353  0.3750553762833704
  0.8751146668357848  0.4998605210582809  0.3751394572467106
  0.1251176308432136  0.7498531456961643  0.3750271344740526
  0.3749445485591849  0.7498792334452276  0.3750553762938864
  0.6248152025583380  0.7498152026577358  0.3752239683678411
  0.8751322171118119  0.7496500474874708  0.3752981166769374
  0.1256481930775308  0.0003223881626297  0.6243519864274205
  0.3748808669125339  0.0000813598443159  0.6247653669903812
  0.6246967420323699  0.0001351471337756  0.6242813176335176
  0.8758556173025198  0.0008556122670811  0.6235632749822315
  0.1251303110415591  0.2501303085615731  0.6248697371730998
  0.3749333733825466  0.2501221637754512  0.6248778312403616
  0.6248361004363190  0.2502042526880288  0.6247957447041443
  0.8753224009277218  0.2506482028167554  0.6243519762133900
  0.1251221651154850  0.4999333733872859  0.6248778320653798
  0.3749683985092886  0.4999683991490613  0.6249198235471880
  0.6248531212653319  0.4999728459064272  0.6248822590851546
  0.8750813641398807  0.4998808711805367  0.6247653670537971
  0.1252042502700164  0.7498361010464762  0.6247957491770464
  0.3749728414115125  0.7498531189980895  0.6248822592054424
  0.6247664797340846  0.7497664800481729  0.6248079948733647
  0.8751351598791288  0.7496967503147545  0.6242813302129093
  0.1264370928197565  0.0008556516641178  0.8741446151450276
  0.3747046502204299  0.0000688861608538  0.8749311560006632
  0.6217537127918433  0.9995310458476752  0.8754690439217754
  0.8913752926491512  0.0163750785595767  0.8586271389560096
  0.1256481280592610  0.2506481279255368  0.8746779831335445
  0.3748808351446868  0.2502346119067056  0.8749186917303717
  0.6246967170758211  0.2507187058637115  0.8748648815748794
  0.8758556572221892  0.2514370943720792  0.8741446135825512
  0.1252346122628438  0.4998808385916504  0.8749186902061439
  0.3748604992437663  0.4998605013147923  0.8748852755511010
  0.6246499704727810  0.4997017615208961  0.8748676542674332
  0.8750688886080766  0.4997046560764815  0.8749311553615584
  0.1257186906846428  0.7496967283170193  0.8748648701527699
  0.3747017603294012  0.7496499720203076  0.8748676536186579
  0.6231885030382216  0.7481885008642664  0.8749967841735327
  0.8745310452599995  0.7467537075016182  0.8754690391135611
  0.0003627027198831  0.1253627034819331  0.1253628991817592
  0.2502240949422472  0.1251848057236131  0.1251849597817909
  0.4998081383850277  0.1252335680783006  0.1252335885588423
  0.7499971060959894  0.1268113008889173  0.1268113546687673
  0.0001848078377478  0.3752240964204105  0.1251849618400342
  0.2500554465866216  0.3750554467437794  0.1251208667459593
  0.4998823460721056  0.3750271557762801  0.1251468785590433
  0.7498677964633913  0.3752981799747701  0.1253500047647478
  0.0002335677028782  0.6248081416738600  0.1252335874280064
  0.2500271541343011  0.6248823488522248  0.1251468771364017
  0.4997957400961255  0.6247957427199751  0.1251637822976832
  0.7498648181027150  0.6242813863326333  0.1253031282787660
  0.0018113031323068  0.8749971099744442  0.1268113514882572
  0.2502981778505600  0.8748677981895980  0.1253500026003849
  0.4992813874173905  0.8748648173905167  0.1253031262532858
  0.7504690488635362  0.8754690316448759  0.1282461659986609
  0.0001847765266874  0.1251847759766349  0.3752242075434751
  0.2500554236989103  0.1251207635113758  0.3750555005288092
  0.4998823763551030  0.1251468814717569  0.3750271484862537
  0.7498678155024976  0.1253499898698038  0.3752982198796033
  0.0001207642821797  0.3750554221298898  0.3750554995766393
  0.2500361744612860  0.3750361779123779  0.3750362085624133
  0.4999198886692184  0.3750315969871849  0.3750315734338301
  0.7498853471390774  0.3751394419078906  0.3751394629112497
  0.0001468820615571  0.6248823779284578  0.3750271471390221
  0.2500315964769158  0.6249198839632442  0.3750315736354679
  0.4998778373702990  0.6248778383363458  0.3750664992482058
  0.7499186558820483  0.6247654204754909  0.3751190005782519
  0.0003499906737900  0.8748678152676277  0.3752982194992853
  0.2501394415872369  0.8748853462700765  0.3751394629935305
  0.4997654195937145  0.8749186545931948  0.3751189997548039
  0.7499311706407852  0.8749311705172218  0.3752952169322015
  0.0002335377798772  0.1252335357174132  0.6248082682233047
  0.2500271180856828  0.1251468899884429  0.6248823814258984
  0.4997957314806953  0.1251639206530371  0.6247957087620151
  0.7498648827696641  0.1253032328988155  0.6242814194499360
  0.0001468919632686  0.3750271194714614  0.6248823800169916
  0.2500315735979441  0.3750315737905154  0.6249198748170599
  0.4998778246917226  0.3750665948537488  0.6248777881716094
  0.7499186723351059  0.3751191049046838  0.6247653724132007
  0.0001639222992864  0.6247957359450638  0.6247957106657296
  0.2500665908363544  0.6248778259342842  0.6248777879141656
  0.4998696647075320  0.6248696675347176  0.6248695468728300
  0.7496776635379234  0.6243518072235048  0.6243515982630399
  0.0003032315811780  0.8748648793042406  0.6242814259766760
  0.2501191001972671  0.8749186691608344  0.6247653755304157
  0.4993518033932176  0.8746776591061547  0.6243515959868304
  0.7491444341177953  0.8741444297500465  0.6235627142727154
  0.0018113457022721  0.1268113392807138  0.8749973579141042
  0.2502981847935075  0.1253500427127179  0.8748679188684818
  0.4992812948208680  0.1253032609783560  0.8748648535705001
  0.7504690008436015  0.1282461947086802  0.8754691198720934
  0.0003500464956261  0.3752981877464165  0.8748679164197029
  0.2501394525578817  0.3751394531425376  0.8748854101722046
  0.4997653646557794  0.3751191295126688  0.8749186128721362
  0.7499311585582333  0.3752953492569446  0.8749311160645377
  0.0003032611201519  0.6242813006075210  0.8748648515156319
  0.2501191261637459  0.6247653690097579  0.8749186108077751
  0.4993517802720646  0.6243517810056929  0.8746774526137813
  0.7491444033814645  0.6235629297060825  0.8741442584904320
  0.0032462079490188  0.8754689950889087  0.8754691333277620
  0.2502953438478315  0.8749311575570005  0.8749311163777875
  0.4985629272070966  0.8741443988523869  0.8741442571985729
  0.7336253221488889  0.8586252968491692  0.8586258667449584
  0.1877364063187201  0.1877031657199026  0.0627231990121970
  0.4374610796778740  0.1875080262784294  0.0625673776461753
  0.6874773384693640  0.1873818841603452  0.0625225245709871
  0.9378725288716581  0.1879734222751068  0.0628726597513989
  0.1875567670289513  0.4375466025041561  0.0626138458759300
  0.4374433122321335  0.4374534798159146  0.0626137460340388
  0.6874127490418758  0.4374750105172325  0.0625871945610328
  0.9375872667727378  0.4375250198265661  0.0625873066677869
  0.1875389628324911  0.6874919959126373  0.0625673335353767
  0.4372636972884152  0.6872969154211788  0.0627229197736838
  0.6871275045462184  0.6870267642650418  0.0628724051699905
  0.9375226298976145  0.6876180896314565  0.0625225594790351
  0.1879228710119136  0.9375995490882900  0.0627804574797679
  0.4370771279444057  0.9374003962687354  0.0627804257259115
  0.6857936953466606  0.9353739592570705  0.0642062595716340
  0.9392057333065296  0.9396241537690244  0.0642057145082191
  0.1875762047664793  0.1876131427700685  0.3125762868339237
  0.4374874342582231  0.1875571752512855  0.3125126413602075
  0.6874326056341857  0.1875079668404211  0.3125390112329995
  0.9377230296141050  0.1877030948065936  0.3127364713030545
  0.1875471019372128  0.4375244585228799  0.3125471251433112
  0.4374529652093173  0.4374756131153177  0.3125470634953800
  0.6873862281658987  0.4374534574678037  0.3125567059239316
  0.9376137780040992  0.4375465615817760  0.3125567730328100
  0.1875126149798163  0.6874428549947922  0.3125126186424225
  0.4374238433939510  0.6873868921051169  0.3125761058023215
  0.6872769594912143  0.6872969221583034  0.3127361743601895
  0.9375673460546921  0.6874919910280894  0.3125389377718619
  0.1877395020243426  0.9375811957845031  0.3127396078547378
  0.4372605064070783  0.9374187979974806  0.3127394585062362
  0.6872194981880497  0.9374003588154523  0.3129227705353870
  0.9377804027287056  0.9375995312974510  0.3129229416638779
  0.1875125937856907  0.1875571685909136  0.5624874493972598
  0.4374238351139894  0.1876131349685082  0.5624238346291861
  0.6872769708003332  0.1877030406574036  0.5622637739226519
  0.9375673339613826  0.1875079928315699  0.5624612101018442
  0.1875470793497556  0.4374755915613378  0.5624529345592251
  0.4374529506395533  0.4375244286834885  0.5624529014084629
  0.6873862520157132  0.4375465331563007  0.5624432646810149
  0.9376137928741244  0.4374534471625608  0.5624433125784734
  0.1875761615439231  0.6873869002036699  0.5624238350657507
  0.4374874136719598  0.6874428641383759  0.5624873258534109
  0.6874326487323046  0.6874920389811550  0.5624609318311258
  0.9377230378790955  0.6872969217781346  0.5622637015612639
  0.1877394373892258  0.9374188240952392  0.5622605926861226
  0.4372604826441346  0.9375812402161685  0.5622604280916903
  0.6872194947357926  0.9375996378300613  0.5620771101269710
  0.9377803738267616  0.9374004134077438  0.5620773414446703
  0.1875389740883406  0.1875080352246741  0.8124327208895465
  0.4372636903379359  0.1877030981557226  0.8122769407015937
  0.6871274547679462  0.1879730390426886  0.8121274981546449
  0.9375225688417217  0.1873818879903979  0.8124775074095680
  0.1875567341723681  0.4374534612525451  0.8123862258908119
  0.4374432943349831  0.4375465457724985  0.8123861518141524
  0.6874127809977963  0.4375249850555107  0.8124126633369926
  0.9375872889963190  0.4374750224508972  0.8124127920102708
  0.1877362928930708  0.6872969168459591  0.8122769084635806
  0.4374610433953308  0.6874920439447578  0.8124324797517417
  0.6874774339994332  0.6876181561820331  0.8124772494572667
  0.9378725271388149  0.6870268570138123  0.8121274999217363
  0.1879228331100933  0.9374004104139004  0.8122195498162199
  0.4370771446698498  0.9375996474200079  0.8122194573511123
  0.6857936996244476  0.9396257752835950  0.8107937827104692
  0.9392063629350602  0.9353737493842829  0.8107937423184595
  0.0629734170143124  0.0628725359628390  0.0628726622678926
  0.3125250217544107  0.0625872672292829  0.0625873061315829
  0.5626180946735531  0.0625226314718859  0.0625225539396439
  0.8146241519257984  0.0642057331461956  0.0642057205425814
  0.0627031661812580  0.3127364069447935  0.0627231992556716
  0.3125466035918336  0.3125567654120118  0.0626138449999445
  0.5624919955948968  0.3125389596132209  0.0625673299557477
  0.8125995477254335  0.3129228699103734  0.0627804544141313
  0.0625080270491623  0.5624610768338982  0.0625673803531512
  0.3124534812444608  0.5624433110089697  0.0626137463197551
  0.5622969168266749  0.5622636971656263  0.0627229195476389
  0.8124003933011608  0.5620771255797052  0.0627804283763851
  0.0623818842024306  0.8124773427260408  0.0625225307946948
  0.3124750115471144  0.8124127500250253  0.0625871949931494
  0.5620267585927508  0.8121274976563342  0.0628723999162872
  0.8103738638684348  0.8107936498928652  0.0642063009257541
  0.0627030943767153  0.0627230307430153  0.3127364708971001
  0.3125465630949265  0.0626137785042573  0.3125567726215834
  0.5624919914037605  0.0625673480553530  0.3125389397708105
  0.8125995296977635  0.0627804038714928  0.3129229417280328
  0.0626131441406343  0.3125762038734194  0.3125762865412725
  0.3125244579396735  0.3125471018035242  0.3125471256066703
  0.5624428549492038  0.3125126127861861  0.3125126175472843
  0.8125811944115000  0.3127395005956259  0.3127396084888971
  0.0625571747555682  0.5624874343849839  0.3125126407020105
  0.3124756152529216  0.5624529643332892  0.3125470632082923
  0.5623868917498385  0.5624238420416816  0.3125761054975342
  0.8124187977917146  0.5622605054711656  0.3127394576134819
  0.0625079677761420  0.8124326066508800  0.3125390117620057
  0.3124534587428656  0.8123862285462309  0.3125567061875785
  0.5622969237644924  0.8122769599485622  0.3127361736516718
  0.8124003573406640  0.8122194991503306  0.3129227704538309
  0.0625079922147975  0.0625673381949881  0.5624612067234480
  0.3124534492677569  0.0626137938245463  0.5624433128992266
  0.5622969266704132  0.0627230379822024  0.5622637079163013
  0.8124004094166608  0.0627803768273125  0.5620773454493531
  0.0625571675305565  0.3125125912941726  0.5624874503648982
  0.3124755938743959  0.3125470793416341  0.5624529346024119
  0.5623869003877147  0.3125761594058005  0.5624238368950643
  0.8124188236625685  0.3127394336407150  0.5622605961622327
  0.0626131363472666  0.5624238328551456  0.5624238337117973
  0.3125244280370651  0.5624529481812885  0.5624529019006275
  0.5624428646775570  0.5624874142081069  0.5624873265475259
  0.8125812383930295  0.5622604795778727  0.5622604264869153
  0.0627030428528386  0.8122769712108635  0.5622637694692258
  0.3125465352585124  0.8123862527138641  0.5624432634661147
  0.5624920384496974  0.8124326498697556  0.5624609324116605
  0.8125996335613408  0.8122194984124818  0.5620771068886157
  0.0623818848568973  0.0625225714806419  0.8124775109586651
  0.3124750248946455  0.0625872905674214  0.8124127914165342
  0.5620268720330941  0.0628725348651216  0.8121275061738373
  0.8103735417412778  0.0642064397586495  0.8107936573505441
  0.0625080350056919  0.3125389732892287  0.8124327210299285
  0.3124534635475129  0.3125567318538316  0.8123862262982158
  0.5622969213686275  0.3127362874869704  0.8122769084033905
  0.8124004055841922  0.3129228284150329  0.8122195474388434
  0.0627030997213183  0.5622636849318852  0.8122769414145807
  0.3125465483252015  0.5624432928765941  0.8123861523690366
  0.5624920433716341  0.5624610411198461  0.8124324803268337
  0.8125996441982437  0.5620771404234404  0.8122194586018523
  0.0629730621047031  0.8121274427319847  0.8121274986016971
  0.3125249894338253  0.8124127818485860  0.8124126639045244
  0.5626181596195181  0.8124774404976947  0.8124772479029474
  0.8146257446078664  0.8107937007990174  0.8107937816597968
  0.1877363484617831  0.0627230364740967  0.1877032217853127
  0.4374610595228248  0.0625673672196925  0.1875080111818974
  0.6874773109822954  0.0625225196333332  0.1873818392880366
  0.9378724924701558  0.0628724972326324  0.1879735010997337
  0.1875762307825966  0.3125762307117554  0.1876132464526918
  0.4374874353426819  0.3125126250121966  0.1875571876110058
  0.6874326081969642  0.3125389657294235  0.1875079974682876
  0.9377230354407402  0.3127363492951929  0.1877032227270803
  0.1875126263646152  0.5624874356444920  0.1875571881788787
  0.4374238565709803  0.5624238553517245  0.1876130665756861
  0.6872769519159476  0.5622636855268937  0.1877030099633004
  0.9375673652876628  0.5624610588064698  0.1875080134596914
  0.1875389680294930  0.8124326082496580  0.1875079988258932
  0.4372636864176584  0.8122769528807225  0.1877030101292618
  0.6871274278258355  0.8121274166994326  0.1879729721283709
  0.9375225211694911  0.8124773137331260  0.1873818436735348
  0.1875567011024089  0.0626137676738807  0.4375466382418978
  0.4374432980351699  0.0626137784476484  0.4374534587927030
  0.6874127513781119  0.0625872113661430  0.4374750488013746
  0.9375872058512726  0.0625872068998916  0.4375251525263906
  0.1875470814875726  0.3125470814673150  0.4375244662112863
  0.4374529633260948  0.3125470818061942  0.4374756003715632
  0.6873862416114989  0.3125566801929907  0.4374535066085841
  0.9376137663314310  0.3125566994601527  0.4375466387774836
  0.1875470811605098  0.5624529617937810  0.4374756007484493
  0.4374529592349958  0.5624529576685617  0.4375243737869852
  0.6873862423755881  0.5624433087947622  0.4375464739797579
  0.9376137773652573  0.5624432967166797  0.4374534570712925
  0.1875566825477790  0.8123862420183272  0.4374535048360499
  0.4374433098270245  0.8123862423387536  0.4375464741396726
  0.6874127593034274  0.8124127598646851  0.4375248786666432
  0.9375872109269281  0.8124127521803075  0.4374750460877905
  0.1875389518026296  0.0625673985927051  0.6874921034475321
  0.4372637108486828  0.0627230589204899  0.6872969068620520
  0.6871275185704633  0.0628724976428785  0.6870269370662925
  0.9375226016463998  0.0625226066131788  0.6876183486969936
  0.1875126069453970  0.3125126055393181  0.6874428580856176
  0.4374238367330534  0.3125761734343016  0.6873868522961786
  0.6872769844224749  0.3127362553450439  0.6872969437335925
  0.9375673934785738  0.3125389478197818  0.6874921027125822
  0.1875761752118592  0.5624238340964283  0.6873868518000918
  0.4374874176084518  0.5624874172639522  0.6874427546434845
  0.6874326892051315  0.5624610723015735  0.6874918815679720
  0.9377230583192855  0.5622637052033070  0.6872969041002150
  0.1877362604578963  0.8122769840986805  0.6872969407433303
  0.4374610739055456  0.8124326900544290  0.6874918820173974
  0.6874774528500538  0.8124774600976750  0.6876180161235936
  0.9378724848662756  0.8121275043078668  0.6870269153432389
  0.1879229206526958  0.0627804899046467  0.9375996896486996
  0.4370771676934240  0.0627804813363255  0.9374003969540823
  0.6857934213000405  0.0642065496075688  0.9353735034127695
  0.9392056738311254  0.0642056669771947  0.9396241949101665
  0.1877395830274793  0.3127395824888595  0.9375813144545617
  0.4372605062182302  0.3127395307237535  0.9374187729180861
  0.6872194789889150  0.3129228839067224  0.9374003219127047
  0.9377804866266430  0.3129229194379874  0.9375996882696924
  0.1877395342647858  0.5622605023998304  0.9374187737149029
  0.4372605030921477  0.5622605021222427  0.9375810809453355
  0.6872195650119792  0.5620771385149723  0.9375994644421581
  0.9377804797900851  0.5620771630514341  0.9374003991408060
  0.1879228881749100  0.8122194814915957  0.9374003260662604
  0.4370771410732601  0.8122195675583512  0.9375994631792395
  0.6857938925835327  0.8107938953728606  0.9396251320974187
  0.9392065155231748  0.8107934577772937  0.9353736118330787
  0.0626580077888121  0.1876580079992891  0.1876581447727474
  0.3125712646488239  0.1876132107997108  0.1876132750171493
  0.5624656386333839  0.1875343827333822  0.1875343852423370
  0.8130035630830577  0.1883759459667189  0.1883760414694606
  0.0626132109438160  0.4375712650910586  0.1876132757990661
  0.3125000442057413  0.4375000437406840  0.1875778634489293
  0.5623868359060324  0.4374288082199627  0.1876131432811903
  0.8124999898318066  0.4374999991396038  0.1877441399188697
  0.0625343835559420  0.6874656391008713  0.1875343868557309
  0.3124288103780231  0.6873868356897148  0.1876131439192079
  0.5623420323731239  0.6873420314537171  0.1876578492631609
  0.8119963399602312  0.6866242009729220  0.1883756933828309
  0.0633759478027542  0.9380035675736949  0.1883760452313581
  0.3125000004397833  0.9374999909607595  0.1877441401424775
  0.5616241944703546  0.9369963402313886  0.1883757020016574
  0.8125000057029510  0.9375000080221270  0.1897918330659394
  0.0626131687177889  0.1876131690985616  0.4375713274322095
  0.3125000176217014  0.1875778402544910  0.4375000398444158
  0.5623868443332327  0.1876131681888182  0.4374288231225094
  0.8124999956129528  0.1877440459637540  0.4375001394760787
  0.0625778389472629  0.4375000161781202  0.4375000396908746
  0.3125000252574708  0.4375000253387427  0.4375000061812173
  0.5624221992820466  0.4375000099097406  0.4374999836203770
  0.8125000161495919  0.4374999799264927  0.4375000197420249
  0.0626131688329679  0.6873868434174781  0.4374288213075559
  0.3125000112004201  0.6874221969418457  0.4374999829629260
  0.5623868442778246  0.6873868436679018  0.4375711024274551
  0.8125000066160766  0.6872558896363898  0.4374999216376452
  0.0627440471778229  0.9374999971717060  0.4375001368628233
  0.3124999819463952  0.9375000165639946  0.4375000196977012
  0.5622558894499718  0.9375000076937567  0.4374999238297761
  0.8124999711509560  0.9374999727419464  0.4375000358211878
  0.0625343683238455  0.1875343686991968  0.6874657184565294
  0.3124287806289132  0.1876131992639571  0.6873868327458723
  0.5623420444045095  0.1876579485640733  0.6873420452599888
  0.8119963291526631  0.1883757003835669  0.6866243674199524
  0.0626131989403618  0.4374287777994752  0.6873868323878298
  0.3125000083700868  0.4375000065449512  0.6874221385196435